words_hard_train/1304.qaiger
aag 145 24 0 1 121
2
4
8
16
28
36
50
68
74
88
94
102
128
134
142
166
174
194
210
218
238
248
250
272
290
6 2 5
10 5 9
12 4 8
14 11 13
18 15 17
20 14 16
22 19 21
24 6 22
26 25 21
30 13 29
32 12 28
34 31 33
38 35 37
40 34 36
42 39 41
44 26 43
46 27 42
48 45 47
52 48 51
54 3 4
56 55 7
58 7 23
60 59 25
62 57 61
64 62 49
66 53 65
70 60 69
72 23 68
76 56 75
78 73 76
80 71 79
82 49 50
84 81 83
86 66 85
90 86 88
92 47 41
96 33 95
98 32 94
100 97 99
104 101 103
106 100 102
108 105 107
110 92 109
112 93 108
114 111 113
116 65 114
118 64 115
120 117 119
122 91 121
124 87 89
126 123 125
130 126 128
132 113 107
136 99 135
138 98 134
140 137 139
144 141 143
146 140 142
148 145 147
150 132 149
152 133 148
154 151 153
156 119 154
158 118 155
160 157 159
162 131 161
164 153 147
168 139 167
170 138 166
172 169 171
176 173 175
178 172 174
180 177 179
182 164 181
184 165 180
186 183 185
188 159 186
190 158 187
192 189 191
196 193 195
198 163 197
200 127 129
202 198 201
204 192 194
206 203 205
208 185 179
212 171 211
214 170 210
216 213 215
220 217 219
222 216 218
224 221 223
226 208 225
228 209 224
230 227 229
232 191 230
234 190 231
236 233 235
240 237 239
242 207 241
244 243 235
246 233 238
252 248 250
254 249 251
256 253 255
258 257 214
260 256 215
262 259 261
264 229 223
266 263 265
268 262 264
270 267 269
274 270 273
276 247 275
278 244 276
280 271 272
282 279 281
284 242 234
286 282 285
288 284 275
290 287 289
i0 1 x1[0]
i1 1 x2[7]
i2 1 x2[6]
i3 1 x1[1]
i4 1 x2[5]
i5 1 x1[2]
i6 2 y2[2]
i7 2 y2[1]
i8 2 y2[0]
i9 2 y2[3]
i10 1 x2[4]
i11 1 x1[3]
i12 2 y2[4]
i13 1 x2[3]
i14 1 x1[4]
i15 1 x2[2]
i16 1 x1[5]
i17 2 y2[5]
i18 1 x2[1]
i19 1 x1[6]
i20 2 y2[6]
i21 1 x2[0]
i22 1 x1[7]
i23 2 y2[7]
o0 bv[0]
c
simplified
  <
    2 y2
    add
      add
        reverse
          1 x2
        1
      1 x1
