words_hard_train/1304.qaiger.qdimacs
p cnf 145 364
a 1 2 67 4 71 8 105 109 14 47 18 51 83 87 124 125 0
e 3 5 6 7 9 10 11 12 13 15 16 17 19 20 21 22 23 24 25 26 27 28 29 30 31 32 33 34 35 36 37 38 39 40 41 42 43 44 45 46 48 49 50 52 53 54 55 56 57 58 59 60 61 62 63 64 65 66 68 69 70 72 73 74 75 76 77 78 79 80 81 82 84 85 86 88 89 90 91 92 93 94 95 96 97 98 99 100 101 102 103 104 106 107 108 110 111 112 113 114 115 116 117 118 119 120 121 122 123 126 127 128 129 130 131 132 133 134 135 136 137 138 139 140 141 142 143 144 145 0
-1 2 3 0
1 -3 0
-2 -3 0
2 4 5 0
-2 -5 0
-4 -5 0
-2 -4 6 0
2 -6 0
4 -6 0
5 6 7 0
-5 -7 0
-6 -7 0
7 8 9 0
-7 -9 0
-8 -9 0
-7 -8 10 0
7 -10 0
8 -10 0
9 10 11 0
-9 -11 0
-10 -11 0
-3 -11 12 0
3 -12 0
11 -12 0
12 10 13 0
-12 -13 0
-10 -13 0
6 14 15 0
-6 -15 0
-14 -15 0
-6 -14 16 0
6 -16 0
14 -16 0
15 16 17 0
-15 -17 0
-16 -17 0
17 18 19 0
-17 -19 0
-18 -19 0
-17 -18 20 0
17 -20 0
18 -20 0
19 20 21 0
-19 -21 0
-20 -21 0
-13 21 22 0
13 -22 0
-21 -22 0
13 -21 23 0
-13 -23 0
21 -23 0
22 23 24 0
-22 -24 0
-23 -24 0
-24 25 26 0
24 -26 0
-25 -26 0
1 -2 27 0
-1 -27 0
2 -27 0
27 3 28 0
-27 -28 0
-3 -28 0
3 11 29 0
-3 -29 0
-11 -29 0
29 12 30 0
-29 -30 0
-12 -30 0
28 30 31 0
-28 -31 0
-30 -31 0
-31 24 32 0
31 -32 0
-24 -32 0
26 32 33 0
-26 -33 0
-32 -33 0
-30 34 35 0
30 -35 0
-34 -35 0
11 -34 36 0
-11 -36 0
34 -36 0
-28 37 38 0
28 -38 0
-37 -38 0
36 -38 39 0
-36 -39 0
38 -39 0
35 39 40 0
-35 -40 0
-39 -40 0
24 -25 41 0
-24 -41 0
25 -41 0
40 41 42 0
-40 -42 0
-41 -42 0
-33 42 43 0
33 -43 0
-42 -43 0
-43 -44 45 0
43 -45 0
44 -45 0
23 20 46 0
-23 -46 0
-20 -46 0
16 47 48 0
-16 -48 0
-47 -48 0
-16 -47 49 0
16 -49 0
47 -49 0
48 49 50 0
-48 -50 0
-49 -50 0
50 51 52 0
-50 -52 0
-51 -52 0
-50 -51 53 0
50 -53 0
51 -53 0
52 53 54 0
-52 -54 0
-53 -54 0
-46 54 55 0
46 -55 0
-54 -55 0
46 -54 56 0
-46 -56 0
54 -56 0
55 56 57 0
-55 -57 0
-56 -57 0
32 -57 58 0
-32 -58 0
57 -58 0
-32 57 59 0
32 -59 0
-57 -59 0
58 59 60 0
-58 -60 0
-59 -60 0
45 60 61 0
-45 -61 0
-60 -61 0
43 44 62 0
-43 -62 0
-44 -62 0
61 62 63 0
-61 -63 0
-62 -63 0
-63 -64 65 0
63 -65 0
64 -65 0
56 53 66 0
-56 -66 0
-53 -66 0
49 67 68 0
-49 -68 0
-67 -68 0
-49 -67 69 0
49 -69 0
67 -69 0
68 69 70 0
-68 -70 0
-69 -70 0
70 71 72 0
-70 -72 0
-71 -72 0
-70 -71 73 0
70 -73 0
71 -73 0
72 73 74 0
-72 -74 0
-73 -74 0
-66 74 75 0
66 -75 0
-74 -75 0
66 -74 76 0
-66 -76 0
74 -76 0
75 76 77 0
-75 -77 0
-76 -77 0
59 -77 78 0
-59 -78 0
77 -78 0
-59 77 79 0
59 -79 0
-77 -79 0
78 79 80 0
-78 -80 0
-79 -80 0
65 80 81 0
-65 -81 0
-80 -81 0
76 73 82 0
-76 -82 0
-73 -82 0
69 83 84 0
-69 -84 0
-83 -84 0
-69 -83 85 0
69 -85 0
83 -85 0
84 85 86 0
-84 -86 0
-85 -86 0
86 87 88 0
-86 -88 0
-87 -88 0
-86 -87 89 0
86 -89 0
87 -89 0
88 89 90 0
-88 -90 0
-89 -90 0
-82 90 91 0
82 -91 0
-90 -91 0
82 -90 92 0
-82 -92 0
90 -92 0
91 92 93 0
-91 -93 0
-92 -93 0
79 -93 94 0
-79 -94 0
93 -94 0
-79 93 95 0
79 -95 0
-93 -95 0
94 95 96 0
-94 -96 0
-95 -96 0
96 97 98 0
-96 -98 0
-97 -98 0
81 98 99 0
-81 -99 0
-98 -99 0
63 64 100 0
-63 -100 0
-64 -100 0
-99 100 101 0
99 -101 0
-100 -101 0
-96 -97 102 0
96 -102 0
97 -102 0
101 102 103 0
-101 -103 0
-102 -103 0
92 89 104 0
-92 -104 0
-89 -104 0
85 105 106 0
-85 -106 0
-105 -106 0
-85 -105 107 0
85 -107 0
105 -107 0
106 107 108 0
-106 -108 0
-107 -108 0
108 109 110 0
-108 -110 0
-109 -110 0
-108 -109 111 0
108 -111 0
109 -111 0
110 111 112 0
-110 -112 0
-111 -112 0
-104 112 113 0
104 -113 0
-112 -113 0
104 -112 114 0
-104 -114 0
112 -114 0
113 114 115 0
-113 -115 0
-114 -115 0
95 -115 116 0
-95 -116 0
115 -116 0
-95 115 117 0
95 -117 0
-115 -117 0
116 117 118 0
-116 -118 0
-117 -118 0
118 119 120 0
-118 -120 0
-119 -120 0
103 120 121 0
-103 -121 0
-120 -121 0
121 117 122 0
-121 -122 0
-117 -122 0
116 -119 123 0
-116 -123 0
119 -123 0
-124 -125 126 0
124 -126 0
125 -126 0
124 125 127 0
-124 -127 0
-125 -127 0
126 127 128 0
-126 -128 0
-127 -128 0
128 -107 129 0
-128 -129 0
107 -129 0
-128 107 130 0
128 -130 0
-107 -130 0
129 130 131 0
-129 -131 0
-130 -131 0
114 111 132 0
-114 -132 0
-111 -132 0
131 132 133 0
-131 -133 0
-132 -133 0
-131 -132 134 0
131 -134 0
132 -134 0
133 134 135 0
-133 -135 0
-134 -135 0
-135 136 137 0
135 -137 0
-136 -137 0
123 137 138 0
-123 -138 0
-137 -138 0
-122 -138 139 0
122 -139 0
138 -139 0
135 -136 140 0
-135 -140 0
136 -140 0
139 140 141 0
-139 -141 0
-140 -141 0
-121 -117 142 0
121 -142 0
117 -142 0
-141 142 143 0
141 -143 0
-142 -143 0
-142 137 144 0
142 -144 0
-137 -144 0
143 144 145 0
-143 -145 0
-144 -145 0
145 0
